data;


param d:= 100;
param r:=5;
param p:=0.820000;
param M:=1000;
param U:=
         1         1        6.631289e-01
         2         1        1.448422e+00
         3         1        3.439902e-01
         4         1        2.210192e-01
         5         1        9.507763e-02
         6         1        2.077396e-01
         7         1        3.265958e-01
         8         1        1.992263e+00
         9         1        1.222866e+00
        10         1       -6.293443e-02
        11         1        8.206162e-02
        12         1        6.566790e-01
        13         1       -4.401909e-02
        14         1        1.110170e+00
        15         1        1.815118e+00
        16         1        1.980813e-01
        17         1        6.003947e-01
        18         1       -1.662137e+00
        19         1        1.881220e-01
        20         1       -8.067720e-01
        21         1       -3.299648e-01
        22         1       -1.221524e-01
        23         1       -9.673116e-01
        24         1        4.152233e-01
        25         1       -8.219352e-02
        26         1        4.591651e-01
        27         1        5.968103e-01
        28         1        1.143189e+00
        29         1        8.013044e-01
        30         1       -1.490613e+00
        31         1       -1.674044e+00
        32         1        1.660272e+00
        33         1        8.552195e-01
        34         1        1.642891e+00
        35         1       -1.967158e+00
        36         1       -8.028393e-02
        37         1       -1.288135e+00
        38         1       -2.633650e+00
        39         1       -1.385361e+00
        40         1        3.645421e-01
        41         1        8.227320e-01
        42         1       -1.667152e+00
        43         1       -8.949971e-01
        44         1        1.433846e-01
        45         1       -1.051737e+00
        46         1        1.005599e+00
        47         1       -3.247738e-01
        48         1        1.204138e+00
        49         1        3.064798e-01
        50         1       -5.521255e-01
        51         1        3.821025e-01
        52         1       -3.861475e-01
        53         1       -5.535348e-01
        54         1       -2.896316e-01
        55         1        1.725344e-01
        56         1       -7.747081e-02
        57         1       -1.084482e+00
        58         1        6.927928e-01
        59         1       -3.897922e-01
        60         1       -7.912302e-01
        61         1        8.696587e-01
        62         1        1.476293e+00
        63         1       -2.918794e-02
        64         1        4.314615e-01
        65         1       -1.906861e+00
        66         1        7.883319e-01
        67         1        3.301044e-01
        68         1        2.703652e-01
        69         1        4.884287e-02
        70         1       -2.388102e+00
        71         1       -1.357246e+00
        72         1       -1.291219e+00
        73         1       -1.343021e+00
        74         1       -1.574510e+00
        75         1        8.900511e-03
        76         1        2.113279e-01
        77         1        1.127201e+00
        78         1        3.450633e-01
        79         1        6.265159e-02
        80         1       -1.240645e+00
        81         1        1.156452e+00
        82         1       -7.073600e-01
        83         1       -8.551703e-01
        84         1        1.525591e+00
        85         1        3.822219e-02
        86         1       -2.131584e+00
        87         1       -2.980899e-01
        88         1        1.034925e+00
        89         1        5.015553e-01
        90         1       -1.960453e+00
        91         1        3.897756e-01
        92         1       -7.385289e-01
        93         1        6.537737e-01
        94         1        1.010634e+00
        95         1       -1.351002e-01
        96         1        6.163826e-01
        97         1        2.050152e+00
        98         1        7.293357e-01
        99         1       -1.778979e-01
       100         1       -4.506923e-02
         1         2        1.276502e+00
         2         2       -1.837268e-01
         3         2        5.527971e-01
         4         2        1.585492e+00
         5         2       -3.108680e-01
         6         2        1.189825e-01
         7         2        3.725563e-02
         8         2        6.492023e-01
         9         2       -1.134876e+00
        10         2       -1.463941e-01
        11         2       -8.352609e-01
        12         2        5.478987e-01
        13         2       -1.957873e+00
        14         2       -7.088377e-02
        15         2       -5.781578e-01
        16         2        1.422212e+00
        17         2       -1.475350e+00
        18         2        7.547462e-01
        19         2       -5.283434e-01
        20         2        5.880285e-03
        21         2       -8.546741e-01
        22         2        3.261061e-01
        23         2        2.004456e+00
        24         2       -1.349364e+00
        25         2       -3.835309e-01
        26         2        1.679258e+00
        27         2       -5.158946e-01
        28         2       -6.517618e-01
        29         2        3.193591e-01
        30         2        2.516487e-01
        31         2       -4.435919e-01
        32         2        7.219175e-01
        33         2        2.129506e+00
        34         2       -3.706462e-01
        35         2        1.648005e+00
        36         2        1.168658e+00
        37         2        7.373176e-02
        38         2       -5.426481e-01
        39         2       -1.104591e+00
        40         2        3.563240e-01
        41         2       -3.649019e-01
        42         2        5.699098e-01
        43         2       -7.830025e-02
        44         2       -1.019533e+00
        45         2        2.039128e+00
        46         2        2.789786e-01
        47         2        1.958806e+00
        48         2       -5.918601e-01
        49         2        1.107625e+00
        50         2       -1.874012e+00
        51         2       -9.681919e-01
        52         2       -4.898120e-01
        53         2       -1.209106e+00
        54         2       -6.167914e-01
        55         2       -7.179310e-01
        56         2        2.629705e+00
        57         2        3.797021e-01
        58         2        6.951837e-01
        59         2        6.692589e-01
        60         2        2.355755e+00
        61         2       -1.260690e+00
        62         2       -1.040685e+00
        63         2        7.573256e-03
        64         2        1.940968e+00
        65         2       -1.513797e+00
        66         2        5.839695e-01
        67         2       -3.513129e-01
        68         2        8.592366e-03
        69         2        4.861794e-01
        70         2       -3.756243e-01
        71         2        1.100022e-02
        72         2       -5.039813e-01
        73         2       -8.288360e-01
        74         2       -1.059686e+00
        75         2       -6.861302e-01
        76         2        1.875244e-01
        77         2        1.960502e+00
        78         2        1.784057e+00
        79         2       -1.806444e+00
        80         2       -1.207980e+00
        81         2        8.889287e-01
        82         2        5.565778e-01
        83         2       -6.084430e-01
        84         2        9.219844e-01
        85         2        3.155755e-01
        86         2        7.173552e-01
        87         2        2.926800e+00
        88         2       -1.757868e-01
        89         2       -4.072044e-01
        90         2        8.014543e-01
        91         2       -6.544061e-01
        92         2       -2.306624e-01
        93         2        6.618561e-01
        94         2       -1.154312e+00
        95         2        6.409500e-01
        96         2        5.115116e-01
        97         2       -7.975121e-02
        98         2       -4.112393e-02
        99         2       -5.019857e-01
       100         2       -1.700293e+00
         1         3       -3.455262e-01
         2         3        9.465475e-01
         3         3       -2.549776e-01
         4         3       -1.009149e-01
         5         3       -4.178522e-01
         6         3        4.761957e-01
         7         3        1.692393e+00
         8         3       -1.084435e+00
         9         3        1.746967e-01
        10         3        1.900964e-02
        11         3        9.760321e-01
        12         3        2.363382e+00
        13         3        4.667955e-02
        14         3        1.857960e+00
        15         3       -1.294890e-01
        16         3        2.563486e-01
        17         3       -2.840506e-01
        18         3        3.506999e-01
        19         3        1.378625e+00
        20         3        1.089530e+00
        21         3        4.924895e-01
        22         3        4.926324e-01
        23         3        7.387772e-01
        24         3        1.820810e+00
        25         3        1.740278e-01
        26         3       -9.053910e-01
        27         3       -1.082155e+00
        28         3        5.776583e-01
        29         3        3.811654e-01
        30         3       -1.185545e+00
        31         3       -1.012436e-02
        32         3        6.284263e-01
        33         3        1.228515e-01
        34         3        4.958813e-01
        35         3       -2.242301e-02
        36         3       -1.343872e-01
        37         3       -2.200709e+00
        38         3       -2.182142e-02
        39         3       -2.677095e-01
        40         3       -3.224864e-01
        41         3        4.457809e-01
        42         3       -1.055074e+00
        43         3       -3.493244e-01
        44         3       -5.729054e-01
        45         3       -4.991990e-01
        46         3       -6.457112e-01
        47         3        8.851964e-01
        48         3        6.842655e-01
        49         3        1.930990e+00
        50         3        1.646550e-01
        51         3       -1.333406e+00
        52         3       -1.945646e-01
        53         3       -9.472505e-01
        54         3        6.093399e-01
        55         3       -1.632346e+00
        56         3       -1.192159e+00
        57         3       -1.281931e+00
        58         3       -6.765204e-01
        59         3       -6.520624e-02
        60         3       -1.014286e+00
        61         3        2.915321e-01
        62         3        2.434549e+00
        63         3        1.118952e+00
        64         3        4.987537e-01
        65         3       -7.532776e-01
        66         3        1.778989e+00
        67         3       -5.551907e-01
        68         3       -5.888597e-01
        69         3       -1.202003e+00
        70         3        1.358899e+00
        71         3       -6.377108e-01
        72         3        2.004662e+00
        73         3       -2.713032e-01
        74         3        2.688933e-01
        75         3       -3.233567e-01
        76         3       -3.153206e-01
        77         3        1.164713e+00
        78         3        1.201049e+00
        79         3        2.437007e-01
        80         3       -2.210159e-01
        81         3       -1.709444e+00
        82         3        1.546982e-02
        83         3       -3.304388e-02
        84         3       -7.897931e-01
        85         3        1.500254e+00
        86         3       -1.363787e+00
        87         3       -1.699689e+00
        88         3       -9.094779e-01
        89         3        9.994933e-01
        90         3        1.862446e+00
        91         3        9.015838e-02
        92         3       -7.976536e-01
        93         3        1.086725e+00
        94         3        1.403980e+00
        95         3       -1.574546e-01
        96         3       -4.696082e-01
        97         3        1.132561e+00
        98         3        1.992895e+00
        99         3       -2.862274e-01
       100         3        8.467972e-01
         1         4        1.538304e+00
         2         4        1.033911e+00
         3         4       -4.929722e-01
         4         4        3.123871e-01
         5         4       -1.809638e-01
         6         4        6.700866e-01
         7         4        7.712172e-02
         8         4       -1.357088e+00
         9         4        1.145070e+00
        10         4        1.476172e+00
        11         4        2.161357e+00
        12         4       -7.650783e-01
        13         4        5.732786e-01
        14         4        1.881795e-01
        15         4        8.520033e-01
        16         4       -8.177971e-01
        17         4       -1.113333e+00
        18         4       -1.509957e+00
        19         4       -1.630146e-01
        20         4        1.448717e-01
        21         4        6.672622e-01
        22         4       -2.977213e-01
        23         4       -1.950945e+00
        24         4        4.746452e-01
        25         4       -1.197080e+00
        26         4       -3.725004e-02
        27         4        1.164201e+00
        28         4        1.338726e+00
        29         4        2.281837e+00
        30         4        7.212240e-01
        31         4        7.398305e-01
        32         4        1.744505e+00
        33         4        1.430961e+00
        34         4        2.456495e-01
        35         4        9.431910e-01
        36         4        1.240344e-01
        37         4        7.567023e-01
        38         4       -6.119539e-01
        39         4       -1.626103e+00
        40         4       -8.816797e-01
        41         4        9.878601e-01
        42         4       -1.681617e+00
        43         4        2.198589e-01
        44         4        1.108048e+00
        45         4       -2.025296e-01
        46         4        9.322084e-01
        47         4       -1.043950e+00
        48         4       -9.686580e-01
        49         4       -2.936461e-01
        50         4        8.125847e-01
        51         4       -6.156633e-01
        52         4       -1.433025e-01
        53         4       -7.912956e-02
        54         4        4.787492e-01
        55         4        9.491042e-02
        56         4        8.321651e-01
        57         4        1.785560e-01
        58         4       -2.300344e-01
        59         4        1.030453e-01
        60         4       -3.430473e-01
        61         4       -1.207859e+00
        62         4       -4.261079e-02
        63         4        1.473284e+00
        64         4       -1.792203e+00
        65         4        6.970944e-01
        66         4        9.778645e-01
        67         4       -5.613263e-01
        68         4        3.985821e-02
        69         4        1.218693e+00
        70         4       -2.333743e-01
        71         4       -1.418070e-01
        72         4        1.496212e-01
        73         4        1.179622e-01
        74         4       -8.784679e-02
        75         4        1.546353e+00
        76         4       -7.420474e-01
        77         4       -2.318688e+00
        78         4       -2.360810e+00
        79         4        8.994048e-01
        80         4        1.075107e+00
        81         4        1.314227e+00
        82         4        1.280223e+00
        83         4       -3.203909e-01
        84         4       -1.242941e+00
        85         4        1.055509e+00
        86         4        5.261572e-02
        87         4        8.318756e-01
        88         4       -2.514815e-01
        89         4       -1.373536e-01
        90         4       -5.749574e-01
        91         4       -8.116941e-01
        92         4        2.131596e-01
        93         4       -2.305301e-01
        94         4        7.481458e-01
        95         4       -1.036748e-01
        96         4       -6.743726e-01
        97         4        3.278001e-01
        98         4       -4.097400e-01
        99         4        2.064050e-01
       100         4        1.066510e+00
         1         5       -1.789288e+00
         2         5       -5.959710e-02
         3         5        3.011773e-01
         4         5       -2.108124e-01
         5         5        1.185262e+00
         6         5       -8.312469e-01
         7         5       -5.354041e-01
         8         5        3.784118e-01
         9         5        3.802864e-01
        10         5        5.668038e-01
        11         5       -6.696723e-01
        12         5       -1.417721e+00
        13         5       -1.649167e+00
        14         5       -6.695505e-01
        15         5        2.518199e-01
        16         5        8.814562e-01
        17         5        8.194315e-01
        18         5       -7.682581e-01
        19         5       -3.940478e-01
        20         5       -1.008891e+00
        21         5        3.767383e-01
        22         5       -3.912090e-01
        23         5       -8.861411e-01
        24         5       -2.530555e-01
        25         5       -2.241089e+00
        26         5        8.678426e-02
        27         5       -6.407947e-01
        28         5        2.213899e+00
        29         5        3.335470e-01
        30         5       -4.520128e-01
        31         5        1.972363e+00
        32         5        9.986795e-01
        33         5        7.513403e-01
        34         5        7.828996e-01
        35         5        5.078812e-01
        36         5        3.788260e-01
        37         5        1.136406e+00
        38         5       -6.534473e-01
        39         5       -9.837636e-01
        40         5        6.518997e-01
        41         5       -2.291787e-01
        42         5       -3.017479e-01
        43         5        7.623331e-01
        44         5        8.430399e-01
        45         5        1.666554e+00
        46         5        1.202752e+00
        47         5       -4.233284e-01
        48         5        4.720227e-01
        49         5       -2.831294e-01
        50         5       -4.968171e-01
        51         5       -4.582724e-01
        52         5       -1.422692e+00
        53         5        7.472757e-01
        54         5        8.045592e-01
        55         5        1.424641e+00
        56         5        7.570585e-01
        57         5       -9.378851e-01
        58         5       -4.747747e-01
        59         5        2.573540e-01
        60         5       -3.659257e+00
        61         5       -7.926548e-01
        62         5       -3.679885e-01
        63         5        8.216501e-01
        64         5        9.192151e-02
        65         5       -5.041212e-01
        66         5        2.295218e-02
        67         5       -7.280517e-02
        68         5        1.352680e-01
        69         5       -1.209279e+00
        70         5       -1.267418e+00
        71         5       -9.333747e-01
        72         5        1.058735e+00
        73         5        1.119520e+00
        74         5       -2.551076e-02
        75         5        4.884908e-02
        76         5       -2.605676e-01
        77         5        3.050182e-01
        78         5        1.421552e-01
        79         5        1.121530e+00
        80         5       -1.199541e+00
        81         5       -1.037139e-01
        82         5       -8.652985e-01
        83         5       -1.330687e+00
        84         5        4.007073e-01
        85         5       -1.168563e-01
        86         5        2.423046e+00
        87         5        5.856654e-05
        88         5        6.983807e-01
        89         5        8.957487e-01
        90         5       -8.820760e-01
        91         5       -1.093483e+00
        92         5        9.021474e-01
        93         5       -4.729193e-01
        94         5        8.442902e-01
        95         5       -6.483291e-01
        96         5        7.152905e-01
        97         5        1.808107e+00
        98         5        4.718519e-01
        99         5       -1.009672e+00
       100         5        3.290268e-01
;

param theta:=
    1        6.320474e-01
    2       -2.738891e+00
    3        9.189218e-02
    4        9.547464e-01
    5       -4.739252e-02
;
param X_true:=
    1       -1.533076e+00
    2        2.568443e+00
    3       -1.802557e+00
    4       -3.903457e+00
    5        7.226985e-01
    6        8.360385e-01
    7        4.898511e-01
    8       -2.128223e+00
    9        4.883072e+00
   10        1.712722e+00
   11        4.423736e+00
   12       -1.531746e+00
   13        5.875804e+00
   14        1.262560e+00
   15        3.606320e+00
   16       -4.417020e+00
   17        3.399385e+00
   18       -4.403367e+00
   19        1.458291e+00
   20       -2.187209e-01
   21        2.750992e+00
   22       -1.098275e+00
   23       -7.934989e+00
   24        4.631331e+00
   25       -2.269863e-01
   26       -4.492320e+00
   27        2.754066e+00
   28        3.936291e+00
   29        1.938115e+00
   30       -1.049574e+00
   31        1.017644e+00
   32        8.225170e-01
   33       -3.847434e+00
   34        2.345603e+00
   35       -4.916949e+00
   36       -3.026114e+00
   37       -5.077935e-01
   38       -6.413319e-01
   39        5.906884e-01
   40       -1.619063e+00
   41        2.591512e+00
   42       -4.246845e+00
   43       -1.575291e-01
   44        3.899559e+00
   45       -6.405514e+00
   46        5.498768e-01
   47       -6.383734e+00
   48        1.383026e+00
   49       -2.985325e+00
   50        5.554662e+00
   51        2.071525e+00
   52        9.540542e-01
   53        2.635580e+00
   54        1.946699e+00
   55        1.814957e+00
   56       -6.569894e+00
   57       -1.476774e+00
   58       -1.576351e+00
   59       -2.042630e+00
   60       -7.195477e+00
   61        2.819623e+00
   62        3.903412e+00
   63        1.349881e+00
   64       -6.710918e+00
   65        3.543409e+00
   66        1.572924e-01
   67        7.135702e-01
   68        1.444864e-01
   69       -2.055239e-01
   70       -2.699304e-01
   71       -1.030613e+00
   72        7.017352e-01
   73        1.427516e+00
   74        1.689924e+00
   75        3.270125e+00
   76       -1.117974e+00
   77       -6.812526e+00
   78       -6.998634e+00
   79        5.894924e+00
   80        3.349513e+00
   81       -6.014839e-01
   82       -6.611554e-01
   83        7.401356e-01
   84       -2.756603e+00
   85        4.829835e-01
   86       -3.428790e+00
   87       -7.623149e+00
   88        9.245859e-01
   89        1.492715e+00
   90       -3.708757e+00
   91        1.403723e+00
   92        3.511410e-01
   93       -1.459958e+00
   94        4.761702e+00
   95       -1.730614e+00
   96       -1.644255e+00
   97        1.906650e+00
   98        2.342111e-01
   99        1.572442e+00
  100        5.767295e+00
;
param X:=
    1        2.203525e+00
    2       -1.666382e+00
    3       -1.802557e+00
    4       -1.943058e+00
    5        7.226985e-01
    6        8.360385e-01
    7        5.309193e-01
    8       -2.128223e+00
    9       -7.114861e-01
   10       -6.631266e-01
   11        2.356376e-01
   12        2.795463e-01
   13        5.875804e+00
   14        1.262560e+00
   15        3.464183e-01
   16       -1.305146e+00
   17        1.834322e-01
   18        2.989600e-01
   19        9.488668e-01
   20       -3.356137e-02
   21        1.390972e+00
   22        6.419157e-02
   23       -1.049471e+00
   24        2.408116e-01
   25       -2.269863e-01
   26        6.165748e-01
   27       -1.495266e-01
   28       -1.103278e+00
   29       -4.101447e-01
   30       -9.741157e-01
   31        1.226057e+00
   32        6.729754e-01
   33       -2.981669e-01
   34       -5.038893e-01
   35       -1.112933e-01
   36       -3.026114e+00
   37       -8.443950e-01
   38       -3.911611e-01
   39       -4.335845e-01
   40       -1.816930e+00
   41       -1.561453e-01
   42        8.088934e-01
   43       -6.599686e-01
   44       -6.908971e-01
   45        7.196618e-01
   46        6.654702e-01
   47       -1.467953e+00
   48       -8.143142e-01
   49        9.397517e-01
   50       -7.225148e-01
   51       -1.727303e+00
   52        4.279384e-01
   53        2.635580e+00
   54       -5.404150e-01
   55       -4.919742e-02
   56       -2.110758e+00
   57       -9.237790e-01
   58        8.508905e-01
   59       -2.042630e+00
   60       -6.573947e-01
   61       -1.061177e+00
   62        3.903412e+00
   63        1.062517e+00
   64       -1.343627e-01
   65       -3.527772e-01
   66       -1.651547e-01
   67        7.135702e-01
   68        1.595951e+00
   69       -2.055239e-01
   70       -2.545909e-01
   71       -9.939669e-01
   72        7.017352e-01
   73        1.427516e+00
   74        1.689924e+00
   75       -1.098687e+00
   76       -1.117974e+00
   77       -1.243413e-01
   78       -1.284331e-01
   79        5.839410e-01
   80        1.105302e-01
   81       -5.729305e-01
   82        6.307881e-01
   83       -1.073396e+00
   84       -7.212404e-01
   85       -5.341265e-01
   86       -2.631032e+00
   87       -2.773237e-01
   88        3.747721e-01
   89        5.483627e-01
   90       -7.417068e-01
   91       -1.397410e-01
   92        3.012343e-01
   93        7.539553e-01
   94        4.761702e+00
   95       -9.806610e-01
   96       -8.060418e-01
   97        9.109103e-02
   98        5.967572e-01
   99        8.075459e-01
  100        1.432306e+00
;
param outliervec:=
    1    1
    2    1
    3    0
    4    1
    5    0
    6    0
    7    1
    8    0
    9    1
   10    1
   11    1
   12    1
   13    0
   14    0
   15    1
   16    1
   17    1
   18    1
   19    1
   20    1
   21    1
   22    1
   23    1
   24    1
   25    0
   26    1
   27    1
   28    1
   29    1
   30    1
   31    1
   32    1
   33    1
   34    1
   35    1
   36    0
   37    1
   38    1
   39    1
   40    1
   41    1
   42    1
   43    1
   44    1
   45    1
   46    1
   47    1
   48    1
   49    1
   50    1
   51    1
   52    1
   53    0
   54    1
   55    1
   56    1
   57    1
   58    1
   59    0
   60    1
   61    1
   62    0
   63    1
   64    1
   65    1
   66    1
   67    0
   68    1
   69    0
   70    1
   71    1
   72    0
   73    0
   74    0
   75    1
   76    0
   77    1
   78    1
   79    1
   80    1
   81    1
   82    1
   83    1
   84    1
   85    1
   86    1
   87    1
   88    1
   89    1
   90    1
   91    1
   92    1
   93    1
   94    0
   95    1
   96    1
   97    1
   98    1
   99    1
  100    1
;